609,458
406,131
558,237
921,406
792,748
705,423
417,42
626,577
857,164
787,352
766,433
504,378
681,316
672,378
1095,471
787,352
542,833
311,526
858,434
653,397
627,512
317,142
912,860
597,-127
681,-104
858,753
439,230
664,430
521,487
533,383
385,702
899,564
